# x   |  y    | demand	| numItems | l - w (for each item)
0.0	0.0	0.0	0
3.0	1.0	300.0	4	6	9	7	8	8	4	22	3
3.0	3.0	300.0	5	4	6	19	4	12	3	16	2	15	2
1.0	3.0	300.0	2	5	11	6	5
-1.0	3.0	300.0	2	6	5	8	3
-3.0	3.0	300.0	4	5	8	5	6	7	4	14	3
-3.0	1.0	300.0	2	5	4	17	3
-3.0	-1.0	300.0	3	8	5	5	5	7	4
-3.0	-3.0	300.0	3	6	9	7	6	4	5
-1.0	-3.0	300.0	2	11	2	5	2
1.0	-3.0	300.0	1	6	10
3.0	-3.0	300.0	5	5	12	5	9	6	5	4	5	5	4
3.0	-1.0	300.0	5	7	10	9	4	8	4	5	4	9	2
5.0	1.0	180.0	1	6	4
5.0	3.0	180.0	4	23	4	9	4	9	3	14	2
5.0	5.0	180.0	5	24	4	12	4	10	4	5	4	17	3
3.0	5.0	180.0	1	8	12
1.0	5.0	180.0	5	6	10	4	10	5	6	7	4	4	3
-1.0	5.0	180.0	4	7	7	5	5	7	4	5	4
-3.0	5.0	180.0	1	7	5
-5.0	5.0	180.0	3	6	6	19	2	5	2
-5.0	3.0	180.0	2	7	8	8	5
-5.0	1.0	180.0	2	5	6	10	5
-5.0	-1.0	180.0	5	4	8	24	4	6	4	13	3	21	2
-5.0	-3.0	180.0	4	7	6	7	3	6	3	6	2
-5.0	-5.0	180.0	3	6	7	5	7	7	3
-3.0	-5.0	180.0	2	7	12	5	12
-1.0	-5.0	180.0	5	5	6	11	4	8	3	8	3	6	3
1.0	-5.0	180.0	1	21	3
3.0	-5.0	180.0	3	6	5	5	3	7	2
5.0	-5.0	180.0	4	5	6	10	4	15	3	13	3
5.0	-3.0	180.0	4	6	4	15	3	13	3	5	3
5.0	-1.0	180.0	2	24	3	13	2
7.0	1.0	128.0	5	7	6	12	4	7	4	24	3	7	3
7.0	3.0	128.0	5	7	8	9	6	7	5	6	3	15	2
7.0	5.0	128.0	2	6	6	17	3
7.0	7.0	128.0	3	7	5	23	4	23	2
5.0	7.0	128.0	3	5	11	4	5	20	3
3.0	7.0	128.0	2	10	4	4	3
1.0	7.0	128.0	3	12	4	5	4	9	3
-1.0	7.0	128.0	2	17	4	10	2
-3.0	7.0	128.0	5	6	12	10	5	8	5	6	3	5	2
-5.0	7.0	128.0	4	7	11	5	7	10	4	10	2
-7.0	7.0	128.0	3	5	10	11	3	6	3
-7.0	5.0	128.0	3	11	5	21	3	14	2
-7.0	3.0	128.0	5	9	4	21	3	17	3	4	3	4	2
-7.0	1.0	128.0	4	5	11	23	4	16	3	16	3
-7.0	-1.0	128.0	5	7	9	10	5	6	4	6	4	7	3
-7.0	-3.0	128.0	2	8	8	12	6
-7.0	-5.0	128.0	5	6	8	11	6	8	5	6	5	8	4
-7.0	-7.0	128.0	1	6	4
-5.0	-7.0	128.0	4	5	8	9	4	9	3	6	3
-3.0	-7.0	128.0	1	10	5
-1.0	-7.0	128.0	2	16	4	12	2
1.0	-7.0	128.0	1	4	11
3.0	-7.0	128.0	5	8	6	8	4	5	4	10	3	8	3
5.0	-7.0	128.0	2	17	4	9	3
7.0	-7.0	128.0	5	11	6	7	4	5	4	6	3	4	3
7.0	-5.0	128.0	3	8	6	23	4	9	4
7.0	-3.0	128.0	1	13	3
7.0	-1.0	128.0	1	12	2
9.0	1.0	100.0	4	9	5	9	3	16	2	9	2
9.0	3.0	100.0	1	7	6
9.0	5.0	100.0	1	7	5
9.0	7.0	100.0	1	10	2
9.0	9.0	100.0	2	6	3	12	2
7.0	9.0	100.0	1	20	2
5.0	9.0	100.0	2	4	9	4	3
3.0	9.0	100.0	4	9	6	5	6	9	4	7	3
1.0	9.0	100.0	4	6	10	5	7	11	3	8	3
-1.0	9.0	100.0	2	8	4	6	4
-3.0	9.0	100.0	2	7	11	8	4
-5.0	9.0	100.0	4	7	9	11	6	4	6	8	4
-7.0	9.0	100.0	4	9	5	20	3	20	2	18	2
-9.0	9.0	100.0	1	9	2
-9.0	7.0	100.0	5	7	6	5	6	7	4	7	4	9	2
-9.0	5.0	100.0	2	18	4	12	3
-9.0	3.0	100.0	5	7	6	16	4	24	3	14	3	9	3
-9.0	1.0	100.0	4	11	5	11	4	15	3	9	3
-9.0	-1.0	100.0	4	5	8	4	8	7	6	7	6
-9.0	-3.0	100.0	2	11	6	6	6
-9.0	-5.0	100.0	2	7	7	22	3
-9.0	-7.0	100.0	3	9	4	18	2	14	2
-9.0	-9.0	100.0	1	12	2
-7.0	-9.0	100.0	2	8	7	17	2
-5.0	-9.0	100.0	1	6	4
-3.0	-9.0	100.0	3	7	10	24	4	20	3
-1.0	-9.0	100.0	2	7	5	5	2
1.0	-9.0	100.0	5	5	11	21	4	4	4	8	3	10	2
3.0	-9.0	100.0	3	7	10	7	10	9	3
5.0	-9.0	100.0	1	5	7
7.0	-9.0	100.0	2	5	4	7	2
9.0	-9.0	100.0	5	4	4	10	3	8	3	7	3	20	2
9.0	-7.0	100.0	4	5	11	11	5	10	5	11	2
9.0	-5.0	100.0	1	8	9
9.0	-3.0	100.0	1	8	4
9.0	-1.0	100.0	1	5	8
11.0	1.0	81.0	5	12	5	7	5	19	4	16	3	11	3
11.0	3.0	81.0	3	6	7	22	4	7	3
11.0	5.0	81.0	4	11	3	7	3	19	2	7	2
11.0	7.0	81.0	4	8	5	7	5	8	3	11	2
11.0	9.0	81.0	4	4	11	7	6	6	2	5	2
11.0	11.0	81.0	1	4	6
9.0	11.0	81.0	3	11	5	12	2	6	2
7.0	11.0	81.0	4	7	9	5	8	14	4	5	3
5.0	11.0	81.0	4	5	7	6	4	11	3	4	3
3.0	11.0	81.0	2	6	3	8	2
1.0	11.0	81.0	5	12	6	7	5	8	4	23	3	21	3
-1.0	11.0	81.0	5	9	5	8	5	20	3	11	2	6	2
-3.0	11.0	81.0	1	13	4
-5.0	11.0	81.0	2	9	3	5	2
-7.0	11.0	81.0	1	11	3
-9.0	11.0	81.0	1	7	9
-11.0	11.0	81.0	5	7	10	19	4	12	3	5	3	5	3
-11.0	9.0	81.0	5	5	9	23	3	12	3	7	2	5	2
-11.0	7.0	81.0	5	11	5	6	5	21	3	17	2	10	2
-11.0	5.0	81.0	5	4	10	8	9	7	6	5	6	14	2
-11.0	3.0	81.0	3	7	9	7	9	7	4
-11.0	1.0	81.0	5	6	12	7	11	11	4	8	3	19	2
-11.0	-1.0	81.0	5	5	9	15	3	9	3	6	3	6	3
-11.0	-3.0	81.0	1	5	3
-11.0	-5.0	81.0	2	12	6	11	4
-11.0	-7.0	81.0	4	6	6	4	4	7	3	7	2
-11.0	-9.0	81.0	1	15	3
-11.0	-11.0	81.0	5	7	12	7	5	12	4	7	3	7	3
-9.0	-11.0	81.0	3	6	4	12	3	4	3
-7.0	-11.0	81.0	1	9	6
-5.0	-11.0	81.0	2	6	6	7	4
-3.0	-11.0	81.0	1	17	3
-1.0	-11.0	81.0	2	7	6	21	3
1.0	-11.0	81.0	3	5	10	10	5	5	3
3.0	-11.0	81.0	2	7	12	10	4
5.0	-11.0	81.0	1	4	12
7.0	-11.0	81.0	4	5	3	22	2	10	2	6	2
9.0	-11.0	81.0	2	5	7	23	3
11.0	-11.0	81.0	1	8	4
11.0	-9.0	81.0	2	12	5	11	4
11.0	-7.0	81.0	3	6	8	18	3	6	3
11.0	-5.0	81.0	2	6	4	4	4
11.0	-3.0	81.0	3	5	8	22	3	6	2
11.0	-1.0	81.0	1	6	4
13.0	1.0	69.0	1	13	2
13.0	3.0	69.0	2	5	6	13	2
13.0	5.0	69.0	5	5	11	6	9	8	4	20	3	7	2
13.0	7.0	69.0	3	6	6	9	5	8	5
13.0	9.0	69.0	5	8	6	11	4	10	3	8	3	4	3
13.0	11.0	69.0	3	11	5	17	4	7	4
13.0	13.0	69.0	4	24	3	19	3	17	3	8	2
11.0	13.0	69.0	4	7	11	13	4	5	4	8	3
9.0	13.0	69.0	4	7	11	5	11	5	5	14	3
7.0	13.0	69.0	5	8	5	7	5	8	4	5	4	10	3
5.0	13.0	69.0	5	5	7	10	6	7	4	9	3	10	2
3.0	13.0	69.0	5	7	9	20	3	18	3	9	3	5	3
1.0	13.0	69.0	1	11	3
-1.0	13.0	69.0	1	11	4
-3.0	13.0	69.0	3	6	4	9	3	14	2
-5.0	13.0	69.0	4	7	8	5	8	12	4	9	3
-7.0	13.0	69.0	3	6	7	11	3	5	2
-9.0	13.0	69.0	1	9	4
-11.0	13.0	69.0	3	5	10	20	3	9	3
-13.0	13.0	69.0	3	23	3	12	3	10	2
-13.0	11.0	69.0	4	12	6	10	6	7	3	5	3
-13.0	9.0	69.0	4	6	8	7	6	5	3	5	3
-13.0	7.0	69.0	3	5	4	22	3	8	3
-13.0	5.0	69.0	5	8	8	24	4	21	4	5	4	17	2
-13.0	3.0	69.0	2	5	4	18	3
-13.0	1.0	69.0	5	4	7	15	4	10	3	19	2	11	2
-13.0	-1.0	69.0	2	5	4	17	2
-13.0	-3.0	69.0	3	7	4	8	3	6	2
-13.0	-5.0	69.0	5	5	11	7	9	21	4	6	4	4	4
-13.0	-7.0	69.0	2	6	8	17	3
-13.0	-9.0	69.0	1	8	3
-13.0	-11.0	69.0	4	7	12	7	8	19	3	15	2
-13.0	-13.0	69.0	2	5	10	19	3
-11.0	-13.0	69.0	1	4	3
-9.0	-13.0	69.0	2	5	5	7	3
-7.0	-13.0	69.0	2	24	4	8	3
-5.0	-13.0	69.0	3	7	4	7	2	6	2
-3.0	-13.0	69.0	5	5	5	4	5	18	4	12	4	9	3
-1.0	-13.0	69.0	3	5	9	9	4	4	3
1.0	-13.0	69.0	5	6	6	5	6	6	4	14	3	5	3
3.0	-13.0	69.0	4	7	10	4	7	9	6	8	5
5.0	-13.0	69.0	1	19	4
7.0	-13.0	69.0	3	7	9	9	5	23	3
9.0	-13.0	69.0	5	5	11	9	5	5	4	7	3	8	2
11.0	-13.0	69.0	5	5	5	20	4	8	4	7	3	11	2
13.0	-13.0	69.0	3	8	7	10	4	5	3
13.0	-11.0	69.0	3	10	4	9	3	11	2
13.0	-9.0	69.0	4	22	4	14	3	5	3	11	2
13.0	-7.0	69.0	5	5	4	7	3	6	3	17	2	9	2
13.0	-5.0	69.0	2	6	2	5	2
13.0	-3.0	69.0	5	9	5	8	4	23	3	17	3	14	2
13.0	-1.0	69.0	1	18	2
15.0	1.0	60.0	2	9	5	8	3
15.0	3.0	60.0	2	8	12	7	5
15.0	5.0	60.0	5	23	4	17	3	12	2	8	2	5	2
15.0	7.0	60.0	2	8	11	8	2
15.0	9.0	60.0	5	4	7	9	4	8	4	11	3	7	3
15.0	11.0	60.0	4	9	5	5	4	4	3	21	2
15.0	13.0	60.0	1	19	3
15.0	15.0	60.0	3	6	7	6	4	5	4
13.0	15.0	60.0	5	7	9	8	6	8	5	8	4	14	2
11.0	15.0	60.0	4	21	3	11	3	7	3	5	2
9.0	15.0	60.0	1	14	4
7.0	15.0	60.0	4	5	11	6	8	12	4	14	2
5.0	15.0	60.0	2	14	2	9	2
3.0	15.0	60.0	4	12	6	8	4	7	3	10	2
1.0	15.0	60.0	2	7	8	5	3
-1.0	15.0	60.0	2	9	5	12	4
-3.0	15.0	60.0	1	6	6
-5.0	15.0	60.0	5	5	12	7	11	7	10	7	7	9	6
-7.0	15.0	60.0	1	13	4
-9.0	15.0	60.0	4	4	10	11	5	10	4	4	3
-11.0	15.0	60.0	1	6	3
-13.0	15.0	60.0	2	7	9	8	2
-15.0	15.0	60.0	3	4	5	15	4	7	4
-15.0	13.0	60.0	3	7	10	5	6	4	2
-15.0	11.0	60.0	3	5	8	7	5	5	3
-15.0	9.0	60.0	1	12	3
-15.0	7.0	60.0	5	13	3	8	3	7	3	20	2	9	2
-15.0	5.0	60.0	1	14	4
-15.0	3.0	60.0	5	12	6	4	6	7	4	19	3	4	3
-15.0	1.0	60.0	3	8	6	9	3	14	2
-15.0	-1.0	60.0	2	20	4	24	3
-15.0	-3.0	60.0	2	4	12	4	7
-15.0	-5.0	60.0	2	7	4	22	3
-15.0	-7.0	60.0	2	11	6	5	4
-15.0	-9.0	60.0	4	23	3	21	3	6	3	8	2
-15.0	-11.0	60.0	4	4	10	5	8	7	6	13	3
-15.0	-13.0	60.0	4	7	10	5	9	16	3	6	2
-15.0	-15.0	60.0	3	7	7	7	3	4	3
-13.0	-15.0	60.0	1	6	10
-11.0	-15.0	60.0	2	12	5	23	3
-9.0	-15.0	60.0	5	6	10	6	4	8	3	22	2	21	2
-7.0	-15.0	60.0	4	5	12	9	6	4	6	11	4
-5.0	-15.0	60.0	5	6	7	5	7	11	4	10	3	12	2
-3.0	-15.0	60.0	5	4	8	4	6	8	4	4	4	5	2
-1.0	-15.0	60.0	5	7	8	9	6	6	5	11	4	9	3
1.0	-15.0	60.0	2	9	4	6	2
3.0	-15.0	60.0	3	6	5	5	3	4	3
5.0	-15.0	60.0	3	9	5	7	3	7	3
7.0	-15.0	60.0	1	6	3
9.0	-15.0	60.0	3	10	6	21	4	10	2
11.0	-15.0	60.0	4	4	11	7	7	10	5	7	4
13.0	-15.0	60.0	5	7	4	10	3	17	2	7	2	5	2
15.0	-15.0	60.0	2	13	3	10	2
15.0	-13.0	60.0	3	7	10	21	3	10	3
15.0	-11.0	60.0	5	5	9	7	8	21	3	6	3	22	2
15.0	-9.0	60.0	5	6	8	11	6	7	4	23	2	11	2
15.0	-7.0	60.0	5	18	3	17	3	11	3	9	3	7	2
15.0	-5.0	60.0	4	7	4	19	2	11	2	8	2
15.0	-3.0	60.0	4	5	5	5	5	11	4	8	4
15.0	-1.0	60.0	2	5	9	8	3